p cnf 16 32
c parity= array([0, 1, 0, 1, 0, 1, 1, 1, 1, 0, 0, 0, 0, 0, 1, 0])
c e=1/4
x 1 4 7 8 13 14 0
x 2 7 9 11 14 16 0
x 1 5 9 11 12 14 16 0
x 1 3 4 5 6 9 10 16 0
x -2 4 7 8 10 11 12 0
x 1 3 4 5 8 11 12 13 0
x -1 3 4 6 7 9 13 0
x -1 2 3 5 6 7 8 9 10 11 15 16 0
x -1 2 4 5 6 10 11 0
x 2 8 9 13 14 16 0
x -1 2 6 8 9 13 14 15 16 0
x -1 2 9 0
x -1 3 4 8 9 11 12 13 14 15 0
x -1 2 3 6 7 8 9 11 13 15 16 0
x -1 2 4 5 7 8 13 14 15 0
x 1 2 4 7 10 11 12 13 15 0
x 4 9 10 11 14 15 0
x 2 4 6 12 13 15 0
x 2 3 5 10 11 12 14 15 16 0
x -2 4 8 12 13 14 15 0
x 1 3 7 8 11 12 14 15 0
x -1 2 3 6 7 8 9 10 11 14 15 16 0
x -1 2 3 5 8 10 12 0
x -1 2 3 4 7 10 11 12 13 14 15 16 0
x -1 5 9 10 13 15 16 0
x -1 2 3 4 5 6 7 8 10 11 15 0
x -1 8 11 12 14 0
x -1 3 4 5 7 8 12 13 14 15 0
x 5 8 9 11 15 16 0
x 1 2 5 6 7 8 9 10 0
x -1 2 3 4 5 9 11 13 15 16 0
x -1 2 5 6 9 10 11 12 13 14 15 0
